(set-logic QF_LIA)
(declare-fun x0 () Int)
(declare-fun x1 () Int)
(declare-fun x2 () Int)
(declare-fun x3 () Int)
(declare-fun x4 () Int)
(declare-fun x5 () Int)
(declare-fun x6 () Int)
(declare-fun x7 () Int)
(declare-fun x8 () Int)
(declare-fun x9 () Int)
(declare-fun A0 () Bool)
(declare-fun A1 () Bool)
(declare-fun A2 () Bool)
(declare-fun A5 () Bool)
(declare-fun A6 () Bool)
(declare-fun A8 () Bool)
(declare-fun A9 () Bool)
(assert (let ((.def_0 (* 1 x3))) (let ((.def_1 (* (- 1) x9))) (let ((.def_2 (+ .def_1 .def_0))) (let ((.def_3 (< .def_2 1))) (let ((.def_4 (* 1 x2))) (let ((.def_5 (< .def_4 (- 1)))) (let ((.def_6 (not .def_5))) (let ((.def_7 (= .def_6 .def_3))) (let ((.def_8 (* (- 1) x3))) (let ((.def_9 (< .def_8 (- 1)))) (let ((.def_10 (* (- 1) x0))) (let ((.def_11 (+ .def_0 .def_10))) (let ((.def_12 (< .def_11 (- 1)))) (let ((.def_13 (not .def_12))) (let ((.def_14 (and .def_13 .def_9))) (let ((.def_15 (= .def_14 .def_7))) (let ((.def_16 (+ .def_4 .def_8))) (let ((.def_17 (< .def_16 1))) (let ((.def_18 (not .def_17))) (let ((.def_19 (* (- 1) x7))) (let ((.def_20 (* 1 x1))) (let ((.def_21 (+ .def_20 .def_19))) (let ((.def_22 (< .def_21 1))) (let ((.def_23 (= .def_22 .def_18))) (let ((.def_24 (not .def_23))) (let ((.def_25 (* (- 1) x6))) (let ((.def_26 (* 1 x8))) (let ((.def_27 (+ .def_26 .def_25))) (let ((.def_28 (< .def_27 (- 1)))) (let ((.def_29 (and .def_28 A8))) (let ((.def_30 (and .def_29 .def_24))) (let ((.def_31 (or .def_30 .def_15))) (let ((.def_32 (* (- 1) x4))) (let ((.def_33 (+ .def_32 .def_0))) (let ((.def_34 (< .def_33 (- 1)))) (let ((.def_35 (< .def_26 1))) (let ((.def_36 (not .def_35))) (let ((.def_37 (and .def_36 .def_34))) (let ((.def_38 (not .def_37))) (let ((.def_39 (* (- 1) x5))) (let ((.def_40 (+ .def_39 .def_10))) (let ((.def_41 (< .def_40 (- 1)))) (let ((.def_42 (not .def_41))) (let ((.def_43 (not A5))) (let ((.def_44 (or .def_43 .def_42))) (let ((.def_45 (and .def_44 .def_38))) (let ((.def_46 (not .def_45))) (let ((.def_47 (not A6))) (let ((.def_48 (< .def_19 1))) (let ((.def_49 (or .def_48 .def_47))) (let ((.def_50 (not .def_49))) (let ((.def_51 (* 1 x5))) (let ((.def_52 (+ .def_51 .def_1))) (let ((.def_53 (< .def_52 (- 1)))) (let ((.def_54 (< .def_10 (- 1)))) (let ((.def_55 (or .def_54 .def_53))) (let ((.def_56 (not .def_55))) (let ((.def_57 (= .def_56 .def_50))) (let ((.def_58 (and .def_57 .def_46))) (let ((.def_59 (not .def_58))) (let ((.def_60 (or .def_59 .def_31))) (let ((.def_61 (* 1 x0))) (let ((.def_62 (+ .def_0 .def_61))) (let ((.def_63 (< .def_62 (- 1)))) (let ((.def_64 (not .def_63))) (let ((.def_65 (* (- 1) x2))) (let ((.def_66 (< .def_65 1))) (let ((.def_67 (or .def_66 .def_64))) (let ((.def_68 (not .def_67))) (let ((.def_69 (< .def_0 (- 1)))) (let ((.def_70 (not .def_69))) (let ((.def_71 (and A1 .def_70))) (let ((.def_72 (not .def_71))) (let ((.def_73 (and .def_72 .def_68))) (let ((.def_74 (< .def_10 1))) (let ((.def_75 (or A9 .def_74))) (let ((.def_76 (or A2 A1))) (let ((.def_77 (not .def_76))) (let ((.def_78 (or .def_77 .def_75))) (let ((.def_79 (or .def_78 .def_73))) (let ((.def_80 (not .def_79))) (let ((.def_81 (or .def_47 A8))) (let ((.def_82 (+ .def_61 .def_26))) (let ((.def_83 (< .def_82 (- 1)))) (let ((.def_84 (not .def_83))) (let ((.def_85 (or .def_84 A0))) (let ((.def_86 (not .def_85))) (let ((.def_87 (and .def_86 .def_81))) (let ((.def_88 (not .def_87))) (let ((.def_89 (* 1 x9))) (let ((.def_90 (+ .def_89 .def_20))) (let ((.def_91 (< .def_90 1))) (let ((.def_92 (not .def_91))) (let ((.def_93 (or .def_92 A2))) (let ((.def_94 (< .def_65 (- 1)))) (let ((.def_95 (not .def_94))) (let ((.def_96 (< .def_39 (- 1)))) (let ((.def_97 (= .def_96 .def_95))) (let ((.def_98 (not .def_97))) (let ((.def_99 (and .def_98 .def_93))) (let ((.def_100 (or .def_99 .def_88))) (let ((.def_101 (and .def_100 .def_80))) (let ((.def_102 (and .def_101 .def_60))) (let ((.def_103 (not .def_102))) (let ((.def_104 (<= x9 1))) (let ((.def_105 (<= 0 x9))) (let ((.def_106 (<= x8 1))) (let ((.def_107 (<= 0 x8))) (let ((.def_108 (<= x7 1))) (let ((.def_109 (<= 0 x7))) (let ((.def_110 (<= x6 1))) (let ((.def_111 (<= 0 x6))) (let ((.def_112 (<= x5 1))) (let ((.def_113 (<= 0 x5))) (let ((.def_114 (<= x4 1))) (let ((.def_115 (<= 0 x4))) (let ((.def_116 (<= x3 1))) (let ((.def_117 (<= 0 x3))) (let ((.def_118 (<= x2 1))) (let ((.def_119 (<= 0 x2))) (let ((.def_120 (<= x1 1))) (let ((.def_121 (<= 0 x1))) (let ((.def_122 (<= x0 1))) (let ((.def_123 (<= 0 x0))) (let ((.def_124 (and .def_123 .def_122 .def_121 .def_120 .def_119 .def_118 .def_117 .def_116 .def_115 .def_114 .def_113 .def_112 .def_111 .def_110 .def_109 .def_108 .def_107 .def_106 .def_105 .def_104 .def_103))) .def_124))))))))))))))))))))))))))))))))))))))))))))))))))))))))))))))))))))))))))))))))))))))))))))))))))))))))))))))))))))))))))))))
(check-sat)
